0 0 0 0
0 1 0 0
0 2 1 0
0 3 1 2
0 4 0 2
0 5 2 10
0 6 0 16
0 7 0 39
0 8 1 6
0 9 2 14
0 10 2 4
0 11 0 40
0 12 0 22
0 13 2 23
0 14 1 22
0 15 1 31
0 16 2 29
0 17 2 37
0 18 2 29
0 19 1 29
0 20 2 46
0 21 2 25
0 22 2 31
0 23 0 41
0 24 2 42
0 25 0 55
0 26 2 48
0 27 2 14
0 28 2 48
0 29 2 55
0 30 1 57
0 31 0 58
